50

100 47 317
96 26 299
93 18 282
90 3 435
88 16 410
88 23 450
86 20 330
85 41 317
84 24 421
84 19 411
83 2 263
83 32 279
80 9 401
80 37 353
79 32 262
77 17 351
77 11 350
74 37 377
70 9 374
68 24 382
67 27 270
64 30 278
61 24 423
61 27 441
58 3 383
58 6 425
58 20 269
56 7 419
54 22 379
54 16 340
53 19 427
51 1 417
49 12 425
48 13 344
47 12 359
45 7 287
45 20 177
44 3 427
43 19 446
41 8 306
41 15 210
40 3 241
40 1 307
37 12 398
36 17 186
34 14 108
34 2 270
33 13 367
33 3 382
31 5 316
